p cnf 150 225
1 117 0
1 15 0
1 43 0
2 12 0
2 80 0
2 119 0
3 83 0
3 68 0
3 44 0
4 32 0
4 93 0
4 63 0
5 110 0
5 141 0
5 99 0
6 118 0
6 49 0
6 58 0
7 102 0
7 14 0
7 55 0
8 124 0
8 92 0
8 63 0
9 138 0
9 90 0
9 68 0
10 59 0
10 101 0
10 141 0
11 144 0
11 25 0
11 143 0
12 38 0
12 28 0
13 49 0
13 45 0
13 115 0
14 59 0
14 149 0
15 115 0
15 128 0
16 97 0
16 26 0
16 95 0
17 136 0
17 95 0
17 138 0
18 20 0
18 131 0
18 58 0
19 37 0
19 130 0
19 93 0
20 91 0
20 113 0
21 96 0
21 132 0
21 142 0
22 65 0
22 89 0
22 73 0
23 92 0
23 66 0
23 116 0
24 50 0
24 85 0
24 77 0
25 134 0
25 62 0
26 137 0
26 127 0
27 51 0
27 84 0
27 32 0
28 29 0
28 126 0
29 53 0
29 60 0
30 114 0
30 137 0
30 64 0
31 36 0
31 69 0
31 42 0
32 38 0
33 56 0
33 54 0
33 35 0
34 38 0
34 146 0
34 126 0
35 81 0
35 145 0
36 129 0
36 57 0
37 74 0
37 106 0
39 108 0
39 61 0
39 111 0
40 129 0
40 100 0
40 108 0
41 117 0
41 121 0
41 108 0
42 140 0
42 131 0
43 66 0
43 116 0
44 102 0
44 124 0
45 127 0
45 115 0
46 114 0
46 50 0
46 48 0
47 107 0
47 67 0
47 118 0
48 112 0
48 150 0
49 150 0
50 91 0
51 103 0
51 87 0
52 128 0
52 133 0
52 123 0
53 141 0
53 86 0
54 69 0
54 94 0
55 77 0
55 139 0
56 133 0
56 99 0
57 81 0
57 61 0
58 144 0
59 86 0
60 120 0
60 62 0
61 91 0
62 104 0
63 86 0
64 140 0
64 78 0
65 72 0
65 105 0
66 121 0
67 97 0
67 93 0
68 119 0
69 109 0
70 120 0
70 122 0
70 114 0
71 139 0
71 84 0
71 76 0
72 122 0
72 135 0
73 81 0
73 103 0
74 111 0
74 87 0
75 89 0
75 94 0
75 79 0
76 146 0
76 125 0
77 94 0
78 110 0
78 129 0
79 109 0
79 90 0
80 139 0
80 88 0
82 149 0
82 105 0
82 134 0
83 121 0
83 88 0
84 123 0
85 90 0
85 102 0
87 98 0
88 125 0
89 143 0
92 133 0
95 104 0
96 110 0
96 136 0
97 135 0
98 111 0
98 106 0
99 142 0
100 144 0
100 130 0
101 148 0
101 147 0
103 150 0
104 126 0
105 142 0
106 116 0
107 117 0
107 112 0
109 125 0
112 127 0
113 147 0
113 128 0
118 135 0
119 136 0
120 123 0
122 149 0
124 132 0
130 131 0
132 137 0
134 143 0
138 145 0
140 147 0
145 148 0
146 148 0
g -91